19 19
7 2
7 5
1 3
2 3
8 1
10 2
1 4
2 2
4 1
5 2
9 7
6 6
5 7
4 5
5 6
5 7
5 4
3 1
9 10
13 20 54
11 17 71
16 15 82
18 13 70
16 17 78
14 13 85
13 15 74
10 10 84
10 13 63
18 19 85
16 19 65
16 15 62
12 16 93
17 19 81
17 16 89
11 15 100
14 15 52
19 19 75
11 15 99
